Maximize

y_0 + y_1 + y_2 + y_3


Subject To

a0: 24 x_0_0 + 16 x_1_0 + 11 x_2_0 + 10 x_3_0 + 15 x_4_0 + 9 x_5_0 + 17 x_6_0 + 19 x_7_0 + 12 x_8_0 + 11 x_9_0 + 15 x_10_0 + 15 x_11_0 + 5 x_12_0 + 12 x_13_0 + 9 x_14_0 <= 50
a1: 24 x_0_1 + 16 x_1_1 + 11 x_2_1 + 10 x_3_1 + 15 x_4_1 + 9 x_5_1 + 17 x_6_1 + 19 x_7_1 + 12 x_8_1 + 11 x_9_1 + 15 x_10_1 + 15 x_11_1 + 5 x_12_1 + 12 x_13_1 + 9 x_14_1 <= 50
a2: 24 x_0_2 + 16 x_1_2 + 11 x_2_2 + 10 x_3_2 + 15 x_4_2 + 9 x_5_2 + 17 x_6_2 + 19 x_7_2 + 12 x_8_2 + 11 x_9_2 + 15 x_10_2 + 15 x_11_2 + 5 x_12_2 + 12 x_13_2 + 9 x_14_2 <= 50
a3: 24 x_0_3 + 16 x_1_3 + 11 x_2_3 + 10 x_3_3 + 15 x_4_3 + 9 x_5_3 + 17 x_6_3 + 19 x_7_3 + 12 x_8_3 + 11 x_9_3 + 15 x_10_3 + 15 x_11_3 + 5 x_12_3 + 12 x_13_3 + 9 x_14_3 <= 50
b0: 24 x_0_0 + 16 x_1_0 + 11 x_2_0 + 10 x_3_0 + 15 x_4_0 + 9 x_5_0 + 17 x_6_0 + 19 x_7_0 + 12 x_8_0 + 11 x_9_0 + 15 x_10_0 + 15 x_11_0 + 5 x_12_0 + 12 x_13_0 + 9 x_14_0 - 50 y_0 >= 0
b1: 24 x_0_1 + 16 x_1_1 + 11 x_2_1 + 10 x_3_1 + 15 x_4_1 + 9 x_5_1 + 17 x_6_1 + 19 x_7_1 + 12 x_8_1 + 11 x_9_1 + 15 x_10_1 + 15 x_11_1 + 5 x_12_1 + 12 x_13_1 + 9 x_14_1 - 50 y_1 >= 0
b2: 24 x_0_2 + 16 x_1_2 + 11 x_2_2 + 10 x_3_2 + 15 x_4_2 + 9 x_5_2 + 17 x_6_2 + 19 x_7_2 + 12 x_8_2 + 11 x_9_2 + 15 x_10_2 + 15 x_11_2 + 5 x_12_2 + 12 x_13_2 + 9 x_14_2 - 50 y_2 >= 0
b3: 24 x_0_3 + 16 x_1_3 + 11 x_2_3 + 10 x_3_3 + 15 x_4_3 + 9 x_5_3 + 17 x_6_3 + 19 x_7_3 + 12 x_8_3 + 11 x_9_3 + 15 x_10_3 + 15 x_11_3 + 5 x_12_3 + 12 x_13_3 + 9 x_14_3 - 50 y_3 >= 0
c0: x_0_0 + x_0_1 + x_0_2 + x_0_3 <= 1
c1: x_1_0 + x_1_1 + x_1_2 + x_1_3 <= 1
c2: x_2_0 + x_2_1 + x_2_2 + x_2_3 <= 1
c3: x_3_0 + x_3_1 + x_3_2 + x_3_3 <= 1
c4: x_4_0 + x_4_1 + x_4_2 + x_4_3 <= 1
c5: x_5_0 + x_5_1 + x_5_2 + x_5_3 <= 1
c6: x_6_0 + x_6_1 + x_6_2 + x_6_3 <= 1
c7: x_7_0 + x_7_1 + x_7_2 + x_7_3 <= 1
c8: x_8_0 + x_8_1 + x_8_2 + x_8_3 <= 1
c9: x_9_0 + x_9_1 + x_9_2 + x_9_3 <= 1
c10: x_10_0 + x_10_1 + x_10_2 + x_10_3 <= 1
c11: x_11_0 + x_11_1 + x_11_2 + x_11_3 <= 1
c12: x_12_0 + x_12_1 + x_12_2 + x_12_3 <= 1
c13: x_13_0 + x_13_1 + x_13_2 + x_13_3 <= 1
c14: x_14_0 + x_14_1 + x_14_2 + x_14_3 <= 1
d0: x_0_3 = 0
d1: x_1_2 = 0
d2: x_2_1 = 0
d3: x_3_0 = 0
d4: x_4_2 = 0
d5: x_4_3 = 0
d6: x_5_1 = 0
d7: x_5_3 = 0
d8: x_6_1 = 0
d9: x_6_2 = 0
d10: x_7_0 = 0
d11: x_7_3 = 0
d12: x_8_0 = 0
d13: x_8_2 = 0
d14: x_9_0 = 0
d15: x_9_1 = 0
d16: x_10_3 = 0
d17: x_11_2 = 0
d18: x_12_1 = 0
d19: x_13_0 = 0
d20: x_14_1 = 0
d21: x_14_2 = 0




Binary

x_0_0 x_0_1 x_0_2 x_0_3 x_1_0 x_1_1 x_1_2 x_1_3 x_2_0 x_2_1 x_2_2 x_2_3 x_3_0 x_3_1 x_3_2 x_3_3 x_4_0 x_4_1 x_4_2 x_4_3 x_5_0 x_5_1 x_5_2 x_5_3 x_6_0 x_6_1 x_6_2 x_6_3 x_7_0 x_7_1 x_7_2 x_7_3 x_8_0 x_8_1 x_8_2 x_8_3 x_9_0 x_9_1 x_9_2 x_9_3 x_10_0 x_10_1 x_10_2 x_10_3 x_11_0 x_11_1 x_11_2 x_11_3 x_12_0 x_12_1 x_12_2 x_12_3 x_13_0 x_13_1 x_13_2 x_13_3 x_14_0 x_14_1 x_14_2 x_14_3 y_0 y_1 y_2 y_3

 


End
